c nIsolatedPIs 160
c maxPI 96
p cnf 319 670
c gate 97 2 50 0
2 -97 0
50 -97 0
-2 -50 97 0
c gate 98 1 49 0
1 -98 0
49 -98 0
-1 -49 98 0
c gate 99 -97 -98 0
-97 -99 0
-98 -99 0
97 98 99 0
c gate 100 -3 -51 0
-3 -100 0
-51 -100 0
3 51 100 0
c gate 101 -2 -50 0
-2 -101 0
-50 -101 0
2 50 101 0
c gate 102 -100 -101 0
-100 -102 0
-101 -102 0
100 101 102 0
c gate 103 -99 102 0
-99 -103 0
102 -103 0
99 -102 103 0
c gate 104 4 52 0
4 -104 0
52 -104 0
-4 -52 104 0
c gate 105 3 51 0
3 -105 0
51 -105 0
-3 -51 105 0
c gate 106 -104 -105 0
-104 -106 0
-105 -106 0
104 105 106 0
c gate 107 -103 106 0
-103 -107 0
106 -107 0
103 -106 107 0
c gate 108 -4 -52 0
-4 -108 0
-52 -108 0
4 52 108 0
c gate 109 -5 -53 0
-5 -109 0
-53 -109 0
5 53 109 0
c gate 110 -108 -109 0
-108 -110 0
-109 -110 0
108 109 110 0
c gate 111 -107 110 0
-107 -111 0
110 -111 0
107 -110 111 0
c gate 112 6 54 0
6 -112 0
54 -112 0
-6 -54 112 0
c gate 113 5 53 0
5 -113 0
53 -113 0
-5 -53 113 0
c gate 114 -112 -113 0
-112 -114 0
-113 -114 0
112 113 114 0
c gate 115 -111 114 0
-111 -115 0
114 -115 0
111 -114 115 0
c gate 116 -7 -55 0
-7 -116 0
-55 -116 0
7 55 116 0
c gate 117 -6 -54 0
-6 -117 0
-54 -117 0
6 54 117 0
c gate 118 -116 -117 0
-116 -118 0
-117 -118 0
116 117 118 0
c gate 119 -115 118 0
-115 -119 0
118 -119 0
115 -118 119 0
c gate 120 8 56 0
8 -120 0
56 -120 0
-8 -56 120 0
c gate 121 7 55 0
7 -121 0
55 -121 0
-7 -55 121 0
c gate 122 -120 -121 0
-120 -122 0
-121 -122 0
120 121 122 0
c gate 123 -119 122 0
-119 -123 0
122 -123 0
119 -122 123 0
c gate 124 -9 -57 0
-9 -124 0
-57 -124 0
9 57 124 0
c gate 125 -8 -56 0
-8 -125 0
-56 -125 0
8 56 125 0
c gate 126 -124 -125 0
-124 -126 0
-125 -126 0
124 125 126 0
c gate 127 -123 126 0
-123 -127 0
126 -127 0
123 -126 127 0
c gate 128 10 58 0
10 -128 0
58 -128 0
-10 -58 128 0
c gate 129 9 57 0
9 -129 0
57 -129 0
-9 -57 129 0
c gate 130 -128 -129 0
-128 -130 0
-129 -130 0
128 129 130 0
c gate 131 -127 130 0
-127 -131 0
130 -131 0
127 -130 131 0
c gate 132 -10 -58 0
-10 -132 0
-58 -132 0
10 58 132 0
c gate 133 -12 -60 0
-12 -133 0
-60 -133 0
12 60 133 0
c gate 134 -11 -59 0
-11 -134 0
-59 -134 0
11 59 134 0
c gate 135 -133 -134 0
-133 -135 0
-134 -135 0
133 134 135 0
c gate 136 -132 135 0
-132 -136 0
135 -136 0
132 -135 136 0
c gate 137 -131 136 0
-131 -137 0
136 -137 0
131 -136 137 0
c gate 138 12 60 0
12 -138 0
60 -138 0
-12 -60 138 0
c gate 139 11 59 0
11 -139 0
59 -139 0
-11 -59 139 0
c gate 140 -133 139 0
-133 -140 0
139 -140 0
133 -139 140 0
c gate 141 -138 -140 0
-138 -141 0
-140 -141 0
138 140 141 0
c gate 142 -137 141 0
-137 -142 0
141 -142 0
137 -141 142 0
c gate 143 -14 -62 0
-14 -143 0
-62 -143 0
14 62 143 0
c gate 144 -15 -63 0
-15 -144 0
-63 -144 0
15 63 144 0
c gate 145 -143 -144 0
-143 -145 0
-144 -145 0
143 144 145 0
c gate 146 14 62 0
14 -146 0
62 -146 0
-14 -62 146 0
c gate 147 13 61 0
13 -147 0
61 -147 0
-13 -61 147 0
c gate 148 -146 -147 0
-146 -148 0
-147 -148 0
146 147 148 0
c gate 149 -13 -61 0
-13 -149 0
-61 -149 0
13 61 149 0
c gate 150 148 -149 0
148 -150 0
-149 -150 0
-148 149 150 0
c gate 151 145 150 0
145 -151 0
150 -151 0
-145 -150 151 0
c gate 152 -142 151 0
-142 -152 0
151 -152 0
142 -151 152 0
c gate 153 145 -148 0
145 -153 0
-148 -153 0
-145 148 153 0
c gate 154 15 63 0
15 -154 0
63 -154 0
-15 -63 154 0
c gate 155 16 64 0
16 -155 0
64 -155 0
-16 -64 155 0
c gate 156 -154 -155 0
-154 -156 0
-155 -156 0
154 155 156 0
c gate 157 -153 156 0
-153 -157 0
156 -157 0
153 -156 157 0
c gate 158 -152 157 0
-152 -158 0
157 -158 0
152 -157 158 0
c gate 159 -20 -68 0
-20 -159 0
-68 -159 0
20 68 159 0
c gate 160 19 -159 0
19 -160 0
-159 -160 0
-19 159 160 0
c gate 161 67 -159 0
67 -161 0
-159 -161 0
-67 159 161 0
c gate 162 -160 -161 0
-160 -162 0
-161 -162 0
160 161 162 0
c gate 163 28 76 0
28 -163 0
76 -163 0
-28 -76 163 0
c gate 164 -28 -76 0
-28 -164 0
-76 -164 0
28 76 164 0
c gate 165 27 75 0
27 -165 0
75 -165 0
-27 -75 165 0
c gate 166 -164 165 0
-164 -166 0
165 -166 0
164 -165 166 0
c gate 167 -163 -166 0
-163 -167 0
-166 -167 0
163 166 167 0
c gate 168 -27 -75 0
-27 -168 0
-75 -168 0
27 75 168 0
c gate 169 -26 -74 0
-26 -169 0
-74 -169 0
26 74 169 0
c gate 170 -164 -169 0
-164 -170 0
-169 -170 0
164 169 170 0
c gate 171 -168 170 0
-168 -171 0
170 -171 0
168 -170 171 0
c gate 172 167 171 0
167 -172 0
171 -172 0
-167 -171 172 0
c gate 173 -162 172 0
-162 -173 0
172 -173 0
162 -172 173 0
c gate 174 -23 -71 0
-23 -174 0
-71 -174 0
23 71 174 0
c gate 175 -22 -70 0
-22 -175 0
-70 -175 0
22 70 175 0
c gate 176 -174 -175 0
-174 -176 0
-175 -176 0
174 175 176 0
c gate 177 24 72 0
24 -177 0
72 -177 0
-24 -72 177 0
c gate 178 23 71 0
23 -178 0
71 -178 0
-23 -71 178 0
c gate 179 -177 -178 0
-177 -179 0
-178 -179 0
177 178 179 0
c gate 180 176 179 0
176 -180 0
179 -180 0
-176 -179 180 0
c gate 181 22 70 0
22 -181 0
70 -181 0
-22 -70 181 0
c gate 182 21 69 0
21 -182 0
69 -182 0
-21 -69 182 0
c gate 183 -181 -182 0
-181 -183 0
-182 -183 0
181 182 183 0
c gate 184 -25 -73 0
-25 -184 0
-73 -184 0
25 73 184 0
c gate 185 -24 -72 0
-24 -185 0
-72 -185 0
24 72 185 0
c gate 186 -184 -185 0
-184 -186 0
-185 -186 0
184 185 186 0
c gate 187 183 186 0
183 -187 0
186 -187 0
-183 -186 187 0
c gate 188 180 187 0
180 -188 0
187 -188 0
-180 -187 188 0
c gate 189 -16 -64 0
-16 -189 0
-64 -189 0
16 64 189 0
c gate 190 -18 -66 0
-18 -190 0
-66 -190 0
18 66 190 0
c gate 191 -189 -190 0
-189 -191 0
-190 -191 0
189 190 191 0
c gate 192 -17 -65 0
-17 -192 0
-65 -192 0
17 65 192 0
c gate 193 -21 -69 0
-21 -193 0
-69 -193 0
21 69 193 0
c gate 194 -192 -193 0
-192 -194 0
-193 -194 0
192 193 194 0
c gate 195 191 194 0
191 -195 0
194 -195 0
-191 -194 195 0
c gate 196 17 65 0
17 -196 0
65 -196 0
-17 -65 196 0
c gate 197 18 66 0
18 -197 0
66 -197 0
-18 -66 197 0
c gate 198 -196 -197 0
-196 -198 0
-197 -198 0
196 197 198 0
c gate 199 25 73 0
25 -199 0
73 -199 0
-25 -73 199 0
c gate 200 26 74 0
26 -200 0
74 -200 0
-26 -74 200 0
c gate 201 -199 -200 0
-199 -201 0
-200 -201 0
199 200 201 0
c gate 202 198 201 0
198 -202 0
201 -202 0
-198 -201 202 0
c gate 203 195 202 0
195 -203 0
202 -203 0
-195 -202 203 0
c gate 204 188 203 0
188 -204 0
203 -204 0
-188 -203 204 0
c gate 205 30 78 0
30 -205 0
78 -205 0
-30 -78 205 0
c gate 206 29 77 0
29 -206 0
77 -206 0
-29 -77 206 0
c gate 207 -205 -206 0
-205 -207 0
-206 -207 0
205 206 207 0
c gate 208 -29 -77 0
-29 -208 0
-77 -208 0
29 77 208 0
c gate 209 -32 -80 0
-32 -209 0
-80 -209 0
32 80 209 0
c gate 210 -208 -209 0
-208 -210 0
-209 -210 0
208 209 210 0
c gate 211 207 210 0
207 -211 0
210 -211 0
-207 -210 211 0
c gate 212 -31 -79 0
-31 -212 0
-79 -212 0
31 79 212 0
c gate 213 -30 -78 0
-30 -213 0
-78 -213 0
30 78 213 0
c gate 214 -212 -213 0
-212 -214 0
-213 -214 0
212 213 214 0
c gate 215 32 80 0
32 -215 0
80 -215 0
-32 -80 215 0
c gate 216 31 79 0
31 -216 0
79 -216 0
-31 -79 216 0
c gate 217 -215 -216 0
-215 -217 0
-216 -217 0
215 216 217 0
c gate 218 214 217 0
214 -218 0
217 -218 0
-214 -217 218 0
c gate 219 211 218 0
211 -219 0
218 -219 0
-211 -218 219 0
c gate 220 20 68 0
20 -220 0
68 -220 0
-20 -68 220 0
c gate 221 67 160 0
67 -221 0
160 -221 0
-67 -160 221 0
c gate 222 -220 -221 0
-220 -222 0
-221 -222 0
220 221 222 0
c gate 223 219 222 0
219 -223 0
222 -223 0
-219 -222 223 0
c gate 224 204 223 0
204 -224 0
223 -224 0
-204 -223 224 0
c gate 225 173 224 0
173 -225 0
224 -225 0
-173 -224 225 0
c gate 226 -158 225 0
-158 -226 0
225 -226 0
158 -225 226 0
c gate 227 -40 -88 0
-40 -227 0
-88 -227 0
40 88 227 0
c gate 228 40 88 0
40 -228 0
88 -228 0
-40 -88 228 0
c gate 229 39 87 0
39 -229 0
87 -229 0
-39 -87 229 0
c gate 230 -228 -229 0
-228 -230 0
-229 -230 0
228 229 230 0
c gate 231 -38 -86 0
-38 -231 0
-86 -231 0
38 86 231 0
c gate 232 -39 -87 0
-39 -232 0
-87 -232 0
39 87 232 0
c gate 233 -231 -232 0
-231 -233 0
-232 -233 0
231 232 233 0
c gate 234 38 86 0
38 -234 0
86 -234 0
-38 -86 234 0
c gate 235 37 85 0
37 -235 0
85 -235 0
-37 -85 235 0
c gate 236 -234 -235 0
-234 -236 0
-235 -236 0
234 235 236 0
c gate 237 -37 -85 0
-37 -237 0
-85 -237 0
37 85 237 0
c gate 238 36 84 0
36 -238 0
84 -238 0
-36 -84 238 0
c gate 239 -36 -84 0
-36 -239 0
-84 -239 0
36 84 239 0
c gate 240 35 -239 0
35 -240 0
-239 -240 0
-35 239 240 0
c gate 241 83 240 0
83 -241 0
240 -241 0
-83 -240 241 0
c gate 242 -238 -241 0
-238 -242 0
-241 -242 0
238 241 242 0
c gate 243 83 -239 0
83 -243 0
-239 -243 0
-83 239 243 0
c gate 244 -240 -243 0
-240 -244 0
-243 -244 0
240 243 244 0
c gate 245 -34 -82 0
-34 -245 0
-82 -245 0
34 82 245 0
c gate 246 33 81 0
33 -246 0
81 -246 0
-33 -81 246 0
c gate 247 34 82 0
34 -247 0
82 -247 0
-34 -82 247 0
c gate 248 -246 -247 0
-246 -248 0
-247 -248 0
246 247 248 0
c gate 249 -245 -248 0
-245 -249 0
-248 -249 0
245 248 249 0
c gate 250 -244 249 0
-244 -250 0
249 -250 0
244 -249 250 0
c gate 251 242 -250 0
242 -251 0
-250 -251 0
-242 250 251 0
c gate 252 -237 -251 0
-237 -252 0
-251 -252 0
237 251 252 0
c gate 253 236 -252 0
236 -253 0
-252 -253 0
-236 252 253 0
c gate 254 233 -253 0
233 -254 0
-253 -254 0
-233 253 254 0
c gate 255 230 -254 0
230 -255 0
-254 -255 0
-230 254 255 0
c gate 256 -227 -255 0
-227 -256 0
-255 -256 0
227 255 256 0
c gate 257 226 256 0
226 -257 0
256 -257 0
-226 -256 257 0
c gate 258 -207 214 0
-207 -258 0
214 -258 0
207 -214 258 0
c gate 259 217 -258 0
217 -259 0
-258 -259 0
-217 258 259 0
c gate 260 -209 -259 0
-209 -260 0
-259 -260 0
209 259 260 0
c gate 261 -190 -198 0
-190 -261 0
-198 -261 0
190 198 261 0
c gate 262 -162 261 0
-162 -262 0
261 -262 0
162 -261 262 0
c gate 263 222 -262 0
222 -263 0
-262 -263 0
-222 262 263 0
c gate 264 -193 -263 0
-193 -264 0
-263 -264 0
193 263 264 0
c gate 265 183 -264 0
183 -265 0
-264 -265 0
-183 264 265 0
c gate 266 176 -265 0
176 -266 0
-265 -266 0
-176 265 266 0
c gate 267 179 -266 0
179 -267 0
-266 -267 0
-179 266 267 0
c gate 268 186 -267 0
186 -268 0
-267 -268 0
-186 267 268 0
c gate 269 201 -268 0
201 -269 0
-268 -269 0
-201 268 269 0
c gate 270 171 -269 0
171 -270 0
-269 -270 0
-171 269 270 0
c gate 271 167 -270 0
167 -271 0
-270 -271 0
-167 270 271 0
c gate 272 219 -271 0
219 -272 0
-271 -272 0
-219 271 272 0
c gate 273 -260 -272 0
-260 -273 0
-272 -273 0
260 272 273 0
c gate 274 -257 273 0
-257 -274 0
273 -274 0
257 -273 274 0
c gate 275 233 236 0
233 -275 0
236 -275 0
-233 -236 275 0
c gate 276 42 90 0
42 -276 0
90 -276 0
-42 -90 276 0
c gate 277 41 89 0
41 -277 0
89 -277 0
-41 -89 277 0
c gate 278 -276 -277 0
-276 -278 0
-277 -278 0
276 277 278 0
c gate 279 248 278 0
248 -279 0
278 -279 0
-248 -278 279 0
c gate 280 275 279 0
275 -280 0
279 -280 0
-275 -279 280 0
c gate 281 -33 -81 0
-33 -281 0
-81 -281 0
33 81 281 0
c gate 282 -41 -89 0
-41 -282 0
-89 -282 0
41 89 282 0
c gate 283 -245 -282 0
-245 -283 0
-282 -283 0
245 282 283 0
c gate 284 -281 283 0
-281 -284 0
283 -284 0
281 -283 284 0
c gate 285 -227 -237 0
-227 -285 0
-237 -285 0
227 237 285 0
c gate 286 230 285 0
230 -286 0
285 -286 0
-230 -285 286 0
c gate 287 284 286 0
284 -287 0
286 -287 0
-284 -286 287 0
c gate 288 280 287 0
280 -288 0
287 -288 0
-280 -287 288 0
c gate 289 242 288 0
242 -289 0
288 -289 0
-242 -288 289 0
c gate 290 48 96 0
48 -290 0
96 -290 0
-48 -96 290 0
c gate 291 -48 -96 0
-48 -291 0
-96 -291 0
48 96 291 0
c gate 292 47 95 0
47 -292 0
95 -292 0
-47 -95 292 0
c gate 293 -291 292 0
-291 -293 0
292 -293 0
291 -292 293 0
c gate 294 -290 -293 0
-290 -294 0
-293 -294 0
290 293 294 0
c gate 295 -46 -94 0
-46 -295 0
-94 -295 0
46 94 295 0
c gate 296 -47 -95 0
-47 -296 0
-95 -296 0
47 95 296 0
c gate 297 -291 -296 0
-291 -297 0
-296 -297 0
291 296 297 0
c gate 298 -295 297 0
-295 -298 0
297 -298 0
295 -297 298 0
c gate 299 294 298 0
294 -299 0
298 -299 0
-294 -298 299 0
c gate 300 -45 -93 0
-45 -300 0
-93 -300 0
45 93 300 0
c gate 301 46 94 0
46 -301 0
94 -301 0
-46 -94 301 0
c gate 302 45 93 0
45 -302 0
93 -302 0
-45 -93 302 0
c gate 303 -301 -302 0
-301 -303 0
-302 -303 0
301 302 303 0
c gate 304 -300 303 0
-300 -304 0
303 -304 0
300 -303 304 0
c gate 305 299 304 0
299 -305 0
304 -305 0
-299 -304 305 0
c gate 306 -43 -91 0
-43 -306 0
-91 -306 0
43 91 306 0
c gate 307 -44 -92 0
-44 -307 0
-92 -307 0
44 92 307 0
c gate 308 -42 -90 0
-42 -308 0
-90 -308 0
42 90 308 0
c gate 309 -307 -308 0
-307 -309 0
-308 -309 0
307 308 309 0
c gate 310 -306 309 0
-306 -310 0
309 -310 0
306 -309 310 0
c gate 311 44 92 0
44 -311 0
92 -311 0
-44 -92 311 0
c gate 312 43 91 0
43 -312 0
91 -312 0
-43 -91 312 0
c gate 313 -307 312 0
-307 -313 0
312 -313 0
307 -312 313 0
c gate 314 -311 -313 0
-311 -314 0
-313 -314 0
311 313 314 0
c gate 315 -244 314 0
-244 -315 0
314 -315 0
244 -314 315 0
c gate 316 310 315 0
310 -316 0
315 -316 0
-310 -315 316 0
c gate 317 305 316 0
305 -317 0
316 -317 0
-305 -316 317 0
c gate 318 289 317 0
289 -318 0
317 -318 0
-289 -317 318 0
c gate 319 -274 318 0
-274 -319 0
318 -319 0
274 -318 319 0
c PO
319 0
